GeneratedTests/Random_11/Random_11_20.tsp
NAME: Random_11_20
TYPE: TSP
DIMENSION: 11
EDGE_WEIGHT_TYPE: EUC_2D
NODE_COORD_SECTION
1 1.8107712 25.09047
2 3.7482715 30.670158
3 15.962978 18.263443
4 6.6592975 12.804781
5 7.300666 10.083533
6 4.8089705 21.895477
7 15.293626 7.917461
8 11.066014 17.212954
9 14.960815 20.988937
10 31.221062 24.604284
11 24.351448 9.496584
EOF
