GeneratedTests/Random_11/Random_11_20.txt
NAME: Random_11_20
TYPE: TSP
DIMENSION: 11
EDGE_WEIGHT_TYPE: EUC_2D
NODE_COORD_SECTION
1 0.531874 23.800392
2 1.5915189 12.21298
3 29.350227 2.5966754
4 27.901606 22.379507
5 8.317885 19.970844
6 26.387274 28.468098
7 29.090218 27.466068
8 10.992045 9.750701
9 17.345718 1.689963
10 25.228182 20.670092
11 21.57789 29.617897
EOF
